16 5
37 79 66 68 180
1 4 4 2 5 4 2 2 3 5 2 5 3 4 2 5
12 19 16 20 37
6 8 4 12 9
13 15 11 20 17
4 9 6 11 7
2 10 9 6 2
11 8 5 16 14
10 13 9 17 14
11 14 10 18 14
7 2 4 7 7
4 4 4 6 5
11 9 6 16 14
14 7 8 16 16
3 11 10 7 3
6 12 8 14 10
12 15 11 19 16
9 1 4 10 10
6 11 7 13 9
